NAME : p16-3-50
COMMENT : "CPTP instance of Bulhões et al. (2018)"
TYPE : CPTP
DIMENSION : 200
EDGE_WEIGHT_TYPE : EUC_2D
VEHICLES : 3
CAPACITY : 50
NODE_COORD_SECTION
   1   35   35
   2   41   49
   3   35   17
   4   55   45
   5   55   20
   6   15   30
   7   25   30
   8   20   50
   9   10   43
  10   55   60
  11   30   60
  12   20   65
  13   50   35
  14   30   25
  15   15   10
  16   30    5
  17   10   20
  18    5   30
  19   20   40
  20   15   60
  21   45   65
  22   45   20
  23   45   10
  24   55    5
  25   65   35
  26   65   20
  27   45   30
  28   35   40
  29   41   37
  30   64   42
  31   40   60
  32   31   52
  33   35   69
  34   53   52
  35   65   55
  36   63   65
  37    2   60
  38   20   20
  39    5    5
  40   60   12
  41   40   25
  42   42    7
  43   24   12
  44   23    3
  45   11   14
  46    6   38
  47    2   48
  48    8   56
  49   13   52
  50    6   68
  51   47   47
  52   49   58
  53   27   43
  54   37   31
  55   57   29
  56   63   23
  57   53   12
  58   32   12
  59   36   26
  60   21   24
  61   17   34
  62   12   24
  63   24   58
  64   27   69
  65   15   77
  66   62   77
  67   49   73
  68   67    5
  69   56   39
  70   37   47
  71   37   56
  72   57   68
  73   47   16
  74   44   17
  75   46   13
  76   49   11
  77   49   42
  78   53   43
  79   61   52
  80   57   48
  81   56   37
  82   55   54
  83   15   47
  84   14   37
  85   11   31
  86   16   22
  87    4   18
  88   28   18
  89   26   52
  90   26   35
  91   31   67
  92   15   19
  93   22   22
  94   18   24
  95   26   27
  96   25   24
  97   22   27
  98   25   21
  99   19   21
 100   20   26
 101   18   18
 102   37   52
 103   49   49
 104   52   64
 105   20   26
 106   40   30
 107   21   47
 108   17   63
 109   31   62
 110   52   33
 111   51   21
 112   42   41
 113   31   32
 114    5   25
 115   12   42
 116   36   16
 117   52   41
 118   27   23
 119   17   33
 120   13   13
 121   57   58
 122   62   42
 123   42   57
 124   16   57
 125    8   52
 126    7   38
 127   27   68
 128   30   48
 129   43   67
 130   58   48
 131   58   27
 132   37   69
 133   38   46
 134   46   10
 135   61   33
 136   62   63
 137   63   69
 138   32   22
 139   45   35
 140   59   15
 141    5    6
 142   10   17
 143   21   10
 144    5   64
 145   30   15
 146   39   10
 147   32   39
 148   25   32
 149   25   55
 150   48   28
 151   56   37
 152   22   22
 153   36   26
 154   21   45
 155   45   35
 156   55   20
 157   33   34
 158   50   50
 159   55   45
 160   26   59
 161   40   66
 162   55   65
 163   35   51
 164   62   35
 165   62   57
 166   62   24
 167   21   36
 168   33   44
 169    9   56
 170   62   48
 171   66   14
 172   44   13
 173   26   13
 174   11   28
 175    7   43
 176   17   64
 177   41   46
 178   55   34
 179   35   16
 180   52   26
 181   43   26
 182   31   76
 183   22   53
 184   26   29
 185   50   40
 186   55   50
 187   54   10
 188   60   15
 189   47   66
 190   30   60
 191   30   50
 192   12   17
 193   15   14
 194   16   19
 195   21   48
 196   50   30
 197   51   42
 198   50   15
 199   48   21
 200   12   38
DEMAND_SECTION
   1    0
   2   10
   3    7
   4   13
   5   19
   6   26
   7    3
   8    5
   9    9
  10   16
  11   16
  12   12
  13   19
  14   23
  15   20
  16    8
  17   19
  18    2
  19   12
  20   17
  21    9
  22   11
  23   18
  24   29
  25    3
  26    6
  27   17
  28   16
  29   16
  30    9
  31   21
  32   27
  33   23
  34   11
  35   14
  36    8
  37    5
  38    8
  39   16
  40   31
  41    9
  42    5
  43    5
  44    7
  45   18
  46   16
  47    1
  48   27
  49   36
  50   30
  51   13
  52   10
  53    9
  54   14
  55   18
  56    2
  57    6
  58    7
  59   18
  60   28
  61    3
  62   13
  63   19
  64   10
  65    9
  66   20
  67   25
  68   25
  69   36
  70    6
  71    5
  72   15
  73   25
  74    9
  75    8
  76   18
  77   13
  78   14
  79    3
  80   23
  81    6
  82   26
  83   16
  84   11
  85    7
  86   41
  87   35
  88   26
  89    9
  90   15
  91    3
  92    1
  93    2
  94   22
  95   27
  96   20
  97   11
  98   12
  99   10
 100    9
 101   17
 102    7
 103   30
 104   16
 105    9
 106   21
 107   15
 108   19
 109   23
 110   11
 111    5
 112   19
 113   29
 114   23
 115   21
 116   10
 117   15
 118    3
 119   41
 120    9
 121   28
 122    8
 123    8
 124   16
 125   10
 126   28
 127    7
 128   15
 129   14
 130    6
 131   19
 132   11
 133   12
 134   23
 135   26
 136   17
 137    6
 138    9
 139   15
 140   14
 141    7
 142   27
 143   13
 144   11
 145   16
 146   10
 147    5
 148   25
 149   17
 150   18
 151   10
 152   18
 153   26
 154   11
 155   30
 156   21
 157   19
 158   15
 159   16
 160   29
 161   26
 162   37
 163   16
 164   12
 165   31
 166    8
 167   19
 168   20
 169   13
 170   15
 171   22
 172   28
 173   12
 174    6
 175   27
 176   14
 177   18
 178   17
 179   29
 180   13
 181   22
 182   25
 183   28
 184   27
 185   19
 186   10
 187   12
 188   14
 189   24
 190   16
 191   33
 192   15
 193   11
 194   18
 195   17
 196   21
 197   27
 198   19
 199   20
 200    5
PRIZE_SECTION
   1    0
   2    7
   3    5
   4   10
   5   13
   6   31
   7    3
   8    6
   9   11
  10   13
  11   10
  12   16
  13   10
  14   23
  15   23
  16    4
  17   23
  18    1
  19    9
  20   18
  21   10
  22    9
  23    9
  24   27
  25    4
  26    3
  27   22
  28   17
  29   11
  30   12
  31   17
  32   39
  33   18
  34   15
  35    8
  36    8
  37    7
  38    9
  39   20
  40   41
  41   11
  42    6
  43    3
  44    8
  45   21
  46   10
  47    1
  48   35
  49   22
  50   32
  51   17
  52   12
  53    6
  54    9
  55   15
  56    1
  57    3
  58    6
  59   15
  60   39
  61    3
  62   11
  63   16
  64    6
  65   10
  66   14
  67   21
  68   15
  69   33
  70    6
  71    5
  72   13
  73   16
  74    9
  75    6
  76   16
  77    9
  78    9
  79    2
  80   16
  81    7
  82   38
  83   15
  84    9
  85    8
  86   54
  87   27
  88   36
  89    5
  90   19
  91    2
  92    1
  93    1
  94   18
  95   38
  96   12
  97   10
  98   15
  99    9
 100   11
 101   24
 102    4
 103   30
 104   12
 105    5
 106   17
 107   15
 108   23
 109   34
 110   12
 111    2
 112   26
 113   21
 114   16
 115   22
 116    8
 117   20
 118    2
 119   39
 120    5
 121   17
 122   11
 123   11
 124   10
 125    6
 126   27
 127    7
 128   14
 129   12
 130    3
 131   24
 132    9
 133   16
 134   20
 135   18
 136   14
 137    6
 138    8
 139   15
 140   13
 141    7
 142   20
 143   15
 144    7
 145   19
 146   14
 147    5
 148   33
 149   19
 150   23
 151   14
 152   15
 153   36
 154    6
 155   29
 156   29
 157   10
 158   11
 159   12
 160   25
 161   14
 162   49
 163   20
 164    7
 165   39
 166    5
 167   28
 168   11
 169    9
 170   15
 171   13
 172   38
 173   13
 174    4
 175   14
 176    9
 177   11
 178   22
 179   31
 180    7
 181   15
 182   23
 183   16
 184   25
 185   25
 186    6
 187    7
 188   17
 189   28
 190   18
 191   32
 192   20
 193   13
 194   21
 195   20
 196   25
 197   20
 198   18
 199   19
 200    7
DEPOT_SECTION
 1
-1
EOF
